n_res = 3;
rcap = [18, 17, 47];
rtype = [1, 1, 2];
n_tasks = 16;
modes = [ {1, 2, 3}, {4, 5, 6}, {7, 8, 9}, {10, 11, 12}, {13, 14, 15}, {16, 17, 18}, {19, 20, 21}, {22, 23, 24}, {25, 26, 27}, {28, 29, 30}, {31, 32, 33}, {34, 35, 36}, {37, 38, 39}, {40, 41, 42}, {43, 44, 45}, {46, 47, 48} ];
succ = [ {4, 5, 12}, {12, 14, 15}, {4, 10}, {8, 9, 14}, {6, 8, 9}, {7, 11, 13}, {10, 16}, {11, 16}, {13, 15}, {14}, {15}, {13}, {16}, {}, {}, {} ];
n_opt = 48;
dur = [6, 10, 10, 3, 3, 10, 6, 8, 10, 3, 7, 10, 5, 8, 8, 1, 6, 8, 2, 8, 10, 1, 9, 9, 5, 9, 10, 4, 6, 7, 5, 7, 10, 2, 3, 9, 3, 5, 7, 5, 7, 10, 2, 8, 10, 1, 6, 10];
rreq = [|  6,  6,  5,  5,  5,  5, 10,  8,  6,  8,  6,  4,  8,  6,  5,  9,  7,  3,  4,  2,  2,  7,  5,  6,  8,  7,  6, 10, 10,  9,  8,  8,  7,  9,  7,  6,  1,  1,  1,  6,  5,  5, 10,  6,  4,  9,  5,  4
        |  6,  4,  5,  6,  8,  4,  3,  3,  1,  6,  5,  3,  5,  4,  5,  8,  7,  3, 10,  9,  9,  5,  3,  1,  1,  1,  1,  8,  6,  6, 10,  8,  7,  5,  2,  1,  6,  4,  2,  4,  4,  3,  6,  4,  3,  6,  3,  3
        |  0,  0,  4,  4,  0,  3,  9,  0,  0,  0,  2,  0,  2,  0,  0,  7,  6,  0,  0,  5,  3,  5,  0,  3,  6,  0,  0,  5,  5,  5,  7,  0,  0,  4,  3,  2,  0,  0,  9,  0,  9,  0,  0,  3,  0,  0,  0,  5 |];
